NAME: tmp
TYPE: TSP
COMMENT: Temp file
DIMENSION: 9
EDGE_WEIGHT_TYPE: EXPLICIT
EDGE_WEIGHT_FORMAT: FULL_MATRIX
EDGE_WEIGHT_SECTION
0 216 470 1030 982 845 1244 1000 650
216 0 254 837 891 652 1152 908 640
470 254 0 640 804 565 1065 821 591
1030 837 640 0 1013 775 1275 1030 816
982 891 804 1013 0 402 261 17 467
845 652 565 775 402 0 663 419 331
1244 1152 1065 1275 261 663 0 244 728
1000 908 821 1030 17 419 244 0 484
650 640 591 816 467 331 728 484 0
EOF